NAME : SCA8-7.10512786.tour
COMMENT : Cost = 0_10512786
COMMENT : Found by LKH [Keld Helsgaun] Tue Apr 25 23:12:23 2017
TYPE : TOUR
DIMENSION : 59
TOUR_SECTION
1
21
51
34
32
47
2
30
57
35
20
8
42
49
56
25
14
16
9
46
54
48
39
45
31
38
23
28
55
18
24
11
40
36
22
19
52
43
3
50
44
27
59
33
7
37
10
58
26
12
15
13
5
4
53
29
6
17
41
-1
EOF
